NAME: concorde91
TYPE: TSP
DIMENSION: 25 
EDGE_WEIGHT_TYPE: EUC_2D
NODE_COORD_SECTION
1 14 56
2 8 61
3 80 64
4 34 80
5 73 34
6 34 33
7 86 99
8 41 72
9 57 41
10 91 57
11 94 10
12 85 87
13 41 48
14 35 28
15 46 46
16 91 4
17 36 88
18 58 75
19 63 7
20 72 43
21 2 52
22 50 74
23 44 27
24 56 49
25 17 97
